21 21
1 1
5 6
4 2
2 2
1 7
10 8
5 7
1 10
5 2
8 5
6 9
8 9
4 6
5 2
9 7
10 3
6 2
5 3
5 4
8 1
4 1
20 14 66
17 14 86
12 17 56
11 14 61
16 12 54
20 16 85
10 10 84
18 17 65
11 16 85
11 11 73
18 15 91
14 19 94
17 13 65
18 16 91
14 14 56
10 14 68
20 16 55
15 13 71
11 20 53
15 10 95
13 20 88
